(benchmark fifo32in04k05.smt
:source {
This benchmark comes from bounded model checking of two fifo implementations.
The fifos are resetted once at the beginning.
We try to verify behavioral equivalence with k-induction.
All different constraints are disabled.
Fifo inputs: 'enqueue', 'dequeue', 'reset' (active low) and 'data_in'.
Fifo output: 'empty', 'full' and 'data_out'.
Bit-width: 32
k: 5
The fifos have an internal memory of size 16, respectively modelled as array.

Contributed by Robert Brummayer (robert.brummayer@gmail.com).
}
:status sat
:category { crafted }
:logic QF_AUFBV
:extrafuns ((head_fs_0 BitVec[4]))
:extrafuns ((tail_fs_0 BitVec[4]))
:extrafuns ((full_fs_0 BitVec[1]))
:extrafuns ((empty_fs_0 BitVec[1]))
:extrafuns ((data_out_fs_0 BitVec[32]))
:extrafuns ((head_fq_0 BitVec[4]))
:extrafuns ((tail_fq_0 BitVec[4]))
:extrafuns ((full_fq_0 BitVec[1]))
:extrafuns ((empty_fq_0 BitVec[1]))
:extrafuns ((data_out_fq_0 BitVec[32]))
:extrafuns ((reset_0 BitVec[1]))
:extrafuns ((a30 Array[4:32]))
:extrafuns ((a31 Array[4:32]))
:extrafuns ((enqeue_0 BitVec[1]))
:extrafuns ((deqeue_0 BitVec[1]))
:extrafuns ((data_in_0 BitVec[32]))
:extrafuns ((head_fs_1 BitVec[4]))
:extrafuns ((tail_fs_1 BitVec[4]))
:extrafuns ((full_fs_1 BitVec[1]))
:extrafuns ((empty_fs_1 BitVec[1]))
:extrafuns ((data_out_fs_1 BitVec[32]))
:extrafuns ((head_fq_1 BitVec[4]))
:extrafuns ((tail_fq_1 BitVec[4]))
:extrafuns ((full_fq_1 BitVec[1]))
:extrafuns ((empty_fq_1 BitVec[1]))
:extrafuns ((data_out_fq_1 BitVec[32]))
:extrafuns ((reset_1 BitVec[1]))
:extrafuns ((a141 Array[4:32]))
:extrafuns ((a142 Array[4:32]))
:extrafuns ((enqeue_1 BitVec[1]))
:extrafuns ((deqeue_1 BitVec[1]))
:extrafuns ((data_in_1 BitVec[32]))
:extrafuns ((head_fs_2 BitVec[4]))
:extrafuns ((tail_fs_2 BitVec[4]))
:extrafuns ((full_fs_2 BitVec[1]))
:extrafuns ((empty_fs_2 BitVec[1]))
:extrafuns ((data_out_fs_2 BitVec[32]))
:extrafuns ((head_fq_2 BitVec[4]))
:extrafuns ((tail_fq_2 BitVec[4]))
:extrafuns ((full_fq_2 BitVec[1]))
:extrafuns ((empty_fq_2 BitVec[1]))
:extrafuns ((data_out_fq_2 BitVec[32]))
:extrafuns ((reset_2 BitVec[1]))
:extrafuns ((a264 Array[4:32]))
:extrafuns ((a265 Array[4:32]))
:extrafuns ((enqeue_2 BitVec[1]))
:extrafuns ((deqeue_2 BitVec[1]))
:extrafuns ((data_in_2 BitVec[32]))
:extrafuns ((head_fs_3 BitVec[4]))
:extrafuns ((tail_fs_3 BitVec[4]))
:extrafuns ((full_fs_3 BitVec[1]))
:extrafuns ((empty_fs_3 BitVec[1]))
:extrafuns ((data_out_fs_3 BitVec[32]))
:extrafuns ((head_fq_3 BitVec[4]))
:extrafuns ((tail_fq_3 BitVec[4]))
:extrafuns ((full_fq_3 BitVec[1]))
:extrafuns ((empty_fq_3 BitVec[1]))
:extrafuns ((data_out_fq_3 BitVec[32]))
:extrafuns ((reset_3 BitVec[1]))
:extrafuns ((a387 Array[4:32]))
:extrafuns ((a388 Array[4:32]))
:extrafuns ((enqeue_3 BitVec[1]))
:extrafuns ((deqeue_3 BitVec[1]))
:extrafuns ((data_in_3 BitVec[32]))
:extrafuns ((head_fs_4 BitVec[4]))
:extrafuns ((tail_fs_4 BitVec[4]))
:extrafuns ((full_fs_4 BitVec[1]))
:extrafuns ((empty_fs_4 BitVec[1]))
:extrafuns ((data_out_fs_4 BitVec[32]))
:extrafuns ((head_fq_4 BitVec[4]))
:extrafuns ((tail_fq_4 BitVec[4]))
:extrafuns ((full_fq_4 BitVec[1]))
:extrafuns ((empty_fq_4 BitVec[1]))
:extrafuns ((data_out_fq_4 BitVec[32]))
:extrafuns ((reset_4 BitVec[1]))
:extrafuns ((a510 Array[4:32]))
:extrafuns ((a511 Array[4:32]))
:extrafuns ((enqeue_4 BitVec[1]))
:extrafuns ((deqeue_4 BitVec[1]))
:extrafuns ((data_in_4 BitVec[32]))
:extrafuns ((head_fs_5 BitVec[4]))
:extrafuns ((tail_fs_5 BitVec[4]))
:extrafuns ((full_fs_5 BitVec[1]))
:extrafuns ((empty_fs_5 BitVec[1]))
:extrafuns ((data_out_fs_5 BitVec[32]))
:extrafuns ((head_fq_5 BitVec[4]))
:extrafuns ((tail_fq_5 BitVec[4]))
:extrafuns ((full_fq_5 BitVec[1]))
:extrafuns ((empty_fq_5 BitVec[1]))
:extrafuns ((data_out_fq_5 BitVec[32]))
:extrafuns ((reset_5 BitVec[1]))
:extrafuns ((a633 Array[4:32]))
:extrafuns ((a634 Array[4:32]))
:formula
(let (?e1 bv0[4])
(let (?e2 bv1[4])
(let (?e3 bv2[4])
(let (?e4 bv3[4])
(let (?e5 bv4[4])
(let (?e6 bv5[4])
(let (?e7 bv6[4])
(let (?e8 bv7[4])
(let (?e9 bv8[4])
(let (?e10 bv9[4])
(let (?e11 bv10[4])
(let (?e12 bv11[4])
(let (?e13 bv12[4])
(let (?e14 bv13[4])
(let (?e15 bv14[4])
(let (?e16 bv15[4])
(let (?e17 bv0[1])
(let (?e18 bv1[1])
(let (?e34 (bvand (bvnot enqeue_0) (bvnot deqeue_0)))
(let (?e35 (bvand enqeue_0 deqeue_0))
(let (?e36 (bvand (bvnot ?e34) (bvnot ?e35)))
(let (?e37 (bvadd ?e2 tail_fs_0))
(let (?e38 (ite (= bv1[1] full_fs_0) tail_fs_0 ?e37))
(let (?e39 (bvadd ?e16 tail_fs_0))
(let (?e40 (ite (= bv1[1] empty_fs_0) tail_fs_0 ?e39))
(let (?e41 (ite (= bv1[1] enqeue_0) ?e38 ?e40))
(let (?e42 (ite (= bv1[1] ?e36) ?e41 tail_fs_0))
(let (?e43 (ite (= bv1[1] reset_0) ?e42 ?e1))
(let (?e44 (ite (= ?e15 tail_fs_0) bv1[1] bv0[1]))
(let (?e45 (ite (= bv1[1] ?e44) ?e18 full_fs_0))
(let (?e46 (ite (= bv1[1] deqeue_0) ?e17 ?e45))
(let (?e47 (ite (= bv1[1] ?e36) ?e46 full_fs_0))
(let (?e48 (ite (= bv1[1] reset_0) ?e47 ?e17))
(let (?e49 (ite (= ?e2 tail_fs_0) bv1[1] bv0[1]))
(let (?e50 (ite (= bv1[1] ?e49) ?e18 empty_fs_0))
(let (?e51 (ite (= bv1[1] enqeue_0) ?e17 ?e50))
(let (?e52 (ite (= bv1[1] ?e36) ?e51 empty_fs_0))
(let (?e53 (ite (= bv1[1] reset_0) ?e52 ?e18))
(let (?e54 (bvand (bvnot empty_fs_0) deqeue_0))
(let (?e55 (select a30 head_fs_0))
(let (?e56 (ite (= bv1[1] ?e54) ?e55 data_out_fs_0))
(let (?e57 (ite (= bv1[1] ?e36) ?e56 data_out_fs_0))
(let (?e58 (ite (= bv1[1] reset_0) ?e57 data_out_fs_0))
(let (?e60 (store a30 tail_fs_0 data_in_0))
(let (?e61 (ite (= bv1[1] full_fs_0) a30 ?e60))
(let (?e62 (select a30 ?e2))
(let (?e63 (store a30 ?e1 ?e62))
(let (?e64 (select a30 ?e3))
(let (?e65 (store ?e63 ?e2 ?e64))
(let (?e66 (select a30 ?e4))
(let (?e67 (store ?e65 ?e3 ?e66))
(let (?e68 (select a30 ?e5))
(let (?e69 (store ?e67 ?e4 ?e68))
(let (?e70 (select a30 ?e6))
(let (?e71 (store ?e69 ?e5 ?e70))
(let (?e72 (select a30 ?e7))
(let (?e73 (store ?e71 ?e6 ?e72))
(let (?e74 (select a30 ?e8))
(let (?e75 (store ?e73 ?e7 ?e74))
(let (?e76 (select a30 ?e9))
(let (?e77 (store ?e75 ?e8 ?e76))
(let (?e78 (select a30 ?e10))
(let (?e79 (store ?e77 ?e9 ?e78))
(let (?e80 (select a30 ?e11))
(let (?e81 (store ?e79 ?e10 ?e80))
(let (?e82 (select a30 ?e12))
(let (?e83 (store ?e81 ?e11 ?e82))
(let (?e84 (select a30 ?e13))
(let (?e85 (store ?e83 ?e12 ?e84))
(let (?e86 (select a30 ?e14))
(let (?e87 (store ?e85 ?e13 ?e86))
(let (?e88 (select a30 ?e15))
(let (?e89 (store ?e87 ?e14 ?e88))
(let (?e90 (ite (= bv1[1] enqeue_0) ?e61 ?e89))
(let (?e91 (ite (= bv1[1] ?e36) ?e90 a30))
(let (?e92 (ite (= bv1[1] reset_0) ?e91 a30))
(let (?e93 (bvadd ?e2 head_fq_0))
(let (?e94 (ite (= bv1[1] empty_fq_0) head_fq_0 ?e93))
(let (?e95 (ite (= bv1[1] deqeue_0) ?e94 head_fq_0))
(let (?e96 (ite (= bv1[1] ?e36) ?e95 head_fq_0))
(let (?e97 (ite (= bv1[1] reset_0) ?e96 ?e1))
(let (?e98 (bvadd ?e2 tail_fq_0))
(let (?e99 (ite (= bv1[1] full_fq_0) tail_fq_0 ?e98))
(let (?e100 (ite (= bv1[1] enqeue_0) ?e99 tail_fq_0))
(let (?e101 (ite (= bv1[1] ?e36) ?e100 tail_fq_0))
(let (?e102 (ite (= bv1[1] reset_0) ?e101 ?e1))
(let (?e103 (bvadd ?e2 ?e98))
(let (?e104 (ite (= head_fq_0 ?e103) bv1[1] bv0[1]))
(let (?e105 (ite (= bv1[1] ?e104) ?e18 full_fq_0))
(let (?e106 (ite (= bv1[1] deqeue_0) ?e17 ?e105))
(let (?e107 (ite (= bv1[1] ?e36) ?e106 full_fq_0))
(let (?e108 (ite (= bv1[1] reset_0) ?e107 ?e17))
(let (?e109 (ite (= tail_fq_0 ?e93) bv1[1] bv0[1]))
(let (?e110 (ite (= bv1[1] ?e109) ?e18 empty_fq_0))
(let (?e111 (ite (= bv1[1] enqeue_0) ?e17 ?e110))
(let (?e112 (ite (= bv1[1] ?e36) ?e111 empty_fq_0))
(let (?e113 (ite (= bv1[1] reset_0) ?e112 ?e18))
(let (?e114 (bvand (bvnot empty_fq_0) deqeue_0))
(let (?e115 (select a31 head_fq_0))
(let (?e116 (ite (= bv1[1] ?e114) ?e115 data_out_fq_0))
(let (?e117 (ite (= bv1[1] ?e36) ?e116 data_out_fq_0))
(let (?e118 (ite (= bv1[1] reset_0) ?e117 data_out_fq_0))
(let (?e119 (store a31 tail_fq_0 data_in_0))
(let (?e120 (ite (= bv1[1] full_fq_0) a31 ?e119))
(let (?e121 (ite (= bv1[1] enqeue_0) ?e120 a31))
(let (?e122 (ite (= bv1[1] ?e36) ?e121 a31))
(let (?e123 (ite (= bv1[1] reset_0) ?e122 a31))
(let (?e124 (ite (= data_out_fs_0 data_out_fq_0) bv1[1] bv0[1]))
(let (?e125 (ite (= full_fs_0 full_fq_0) bv1[1] bv0[1]))
(let (?e126 (ite (= empty_fs_0 empty_fq_0) bv1[1] bv0[1]))
(let (?e127 (bvand ?e125 ?e126))
(let (?e128 (bvand ?e124 ?e127))
(let (?e129 (bvand reset_0 (bvnot ?e128)))
(let (?e143 (ite (= ?e1 head_fs_1) bv1[1] bv0[1]))
(let (?e146 (bvand (bvnot enqeue_1) (bvnot deqeue_1)))
(let (?e147 (bvand enqeue_1 deqeue_1))
(let (?e148 (bvand (bvnot ?e146) (bvnot ?e147)))
(let (?e149 (bvadd ?e2 tail_fs_1))
(let (?e150 (ite (= bv1[1] full_fs_1) tail_fs_1 ?e149))
(let (?e151 (bvadd ?e16 tail_fs_1))
(let (?e152 (ite (= bv1[1] empty_fs_1) tail_fs_1 ?e151))
(let (?e153 (ite (= bv1[1] enqeue_1) ?e150 ?e152))
(let (?e154 (ite (= bv1[1] ?e148) ?e153 tail_fs_1))
(let (?e155 (ite (= bv1[1] reset_1) ?e154 ?e1))
(let (?e156 (ite (= ?e43 tail_fs_1) bv1[1] bv0[1]))
(let (?e157 (ite (= ?e15 tail_fs_1) bv1[1] bv0[1]))
(let (?e158 (ite (= bv1[1] ?e157) ?e18 full_fs_1))
(let (?e159 (ite (= bv1[1] deqeue_1) ?e17 ?e158))
(let (?e160 (ite (= bv1[1] ?e148) ?e159 full_fs_1))
(let (?e161 (ite (= bv1[1] reset_1) ?e160 ?e17))
(let (?e162 (ite (= ?e48 full_fs_1) bv1[1] bv0[1]))
(let (?e163 (ite (= ?e2 tail_fs_1) bv1[1] bv0[1]))
(let (?e164 (ite (= bv1[1] ?e163) ?e18 empty_fs_1))
(let (?e165 (ite (= bv1[1] enqeue_1) ?e17 ?e164))
(let (?e166 (ite (= bv1[1] ?e148) ?e165 empty_fs_1))
(let (?e167 (ite (= bv1[1] reset_1) ?e166 ?e18))
(let (?e168 (ite (= ?e53 empty_fs_1) bv1[1] bv0[1]))
(let (?e169 (bvand (bvnot empty_fs_1) deqeue_1))
(let (?e170 (select a141 head_fs_1))
(let (?e171 (ite (= bv1[1] ?e169) ?e170 data_out_fs_1))
(let (?e172 (ite (= bv1[1] ?e148) ?e171 data_out_fs_1))
(let (?e173 (ite (= bv1[1] reset_1) ?e172 data_out_fs_1))
(let (?e174 (ite (= ?e58 data_out_fs_1) bv1[1] bv0[1]))
(let (?e176 (store a141 tail_fs_1 data_in_1))
(let (?e177 (ite (= bv1[1] full_fs_1) a141 ?e176))
(let (?e178 (select a141 ?e2))
(let (?e179 (store a141 ?e1 ?e178))
(let (?e180 (select a141 ?e3))
(let (?e181 (store ?e179 ?e2 ?e180))
(let (?e182 (select a141 ?e4))
(let (?e183 (store ?e181 ?e3 ?e182))
(let (?e184 (select a141 ?e5))
(let (?e185 (store ?e183 ?e4 ?e184))
(let (?e186 (select a141 ?e6))
(let (?e187 (store ?e185 ?e5 ?e186))
(let (?e188 (select a141 ?e7))
(let (?e189 (store ?e187 ?e6 ?e188))
(let (?e190 (select a141 ?e8))
(let (?e191 (store ?e189 ?e7 ?e190))
(let (?e192 (select a141 ?e9))
(let (?e193 (store ?e191 ?e8 ?e192))
(let (?e194 (select a141 ?e10))
(let (?e195 (store ?e193 ?e9 ?e194))
(let (?e196 (select a141 ?e11))
(let (?e197 (store ?e195 ?e10 ?e196))
(let (?e198 (select a141 ?e12))
(let (?e199 (store ?e197 ?e11 ?e198))
(let (?e200 (select a141 ?e13))
(let (?e201 (store ?e199 ?e12 ?e200))
(let (?e202 (select a141 ?e14))
(let (?e203 (store ?e201 ?e13 ?e202))
(let (?e204 (select a141 ?e15))
(let (?e205 (store ?e203 ?e14 ?e204))
(let (?e206 (ite (= bv1[1] enqeue_1) ?e177 ?e205))
(let (?e207 (ite (= bv1[1] ?e148) ?e206 a141))
(let (?e208 (ite (= bv1[1] reset_1) ?e207 a141))
(let (?e209 (ite (= ?e92 a141) bv1[1] bv0[1]))
(let (?e210 (bvadd ?e2 head_fq_1))
(let (?e211 (ite (= bv1[1] empty_fq_1) head_fq_1 ?e210))
(let (?e212 (ite (= bv1[1] deqeue_1) ?e211 head_fq_1))
(let (?e213 (ite (= bv1[1] ?e148) ?e212 head_fq_1))
(let (?e214 (ite (= bv1[1] reset_1) ?e213 ?e1))
(let (?e215 (ite (= ?e97 head_fq_1) bv1[1] bv0[1]))
(let (?e216 (bvadd ?e2 tail_fq_1))
(let (?e217 (ite (= bv1[1] full_fq_1) tail_fq_1 ?e216))
(let (?e218 (ite (= bv1[1] enqeue_1) ?e217 tail_fq_1))
(let (?e219 (ite (= bv1[1] ?e148) ?e218 tail_fq_1))
(let (?e220 (ite (= bv1[1] reset_1) ?e219 ?e1))
(let (?e221 (ite (= ?e102 tail_fq_1) bv1[1] bv0[1]))
(let (?e222 (bvadd ?e2 ?e216))
(let (?e223 (ite (= head_fq_1 ?e222) bv1[1] bv0[1]))
(let (?e224 (ite (= bv1[1] ?e223) ?e18 full_fq_1))
(let (?e225 (ite (= bv1[1] deqeue_1) ?e17 ?e224))
(let (?e226 (ite (= bv1[1] ?e148) ?e225 full_fq_1))
(let (?e227 (ite (= bv1[1] reset_1) ?e226 ?e17))
(let (?e228 (ite (= ?e108 full_fq_1) bv1[1] bv0[1]))
(let (?e229 (ite (= tail_fq_1 ?e210) bv1[1] bv0[1]))
(let (?e230 (ite (= bv1[1] ?e229) ?e18 empty_fq_1))
(let (?e231 (ite (= bv1[1] enqeue_1) ?e17 ?e230))
(let (?e232 (ite (= bv1[1] ?e148) ?e231 empty_fq_1))
(let (?e233 (ite (= bv1[1] reset_1) ?e232 ?e18))
(let (?e234 (ite (= ?e113 empty_fq_1) bv1[1] bv0[1]))
(let (?e235 (bvand (bvnot empty_fq_1) deqeue_1))
(let (?e236 (select a142 head_fq_1))
(let (?e237 (ite (= bv1[1] ?e235) ?e236 data_out_fq_1))
(let (?e238 (ite (= bv1[1] ?e148) ?e237 data_out_fq_1))
(let (?e239 (ite (= bv1[1] reset_1) ?e238 data_out_fq_1))
(let (?e240 (ite (= ?e118 data_out_fq_1) bv1[1] bv0[1]))
(let (?e241 (store a142 tail_fq_1 data_in_1))
(let (?e242 (ite (= bv1[1] full_fq_1) a142 ?e241))
(let (?e243 (ite (= bv1[1] enqeue_1) ?e242 a142))
(let (?e244 (ite (= bv1[1] ?e148) ?e243 a142))
(let (?e245 (ite (= bv1[1] reset_1) ?e244 a142))
(let (?e246 (ite (= ?e123 a142) bv1[1] bv0[1]))
(let (?e247 (ite (= data_out_fs_1 data_out_fq_1) bv1[1] bv0[1]))
(let (?e248 (ite (= full_fs_1 full_fq_1) bv1[1] bv0[1]))
(let (?e249 (ite (= empty_fs_1 empty_fq_1) bv1[1] bv0[1]))
(let (?e250 (bvand ?e248 ?e249))
(let (?e251 (bvand ?e247 ?e250))
(let (?e252 (bvand reset_1 (bvnot ?e251)))
(let (?e266 (ite (= ?e1 head_fs_2) bv1[1] bv0[1]))
(let (?e269 (bvand (bvnot enqeue_2) (bvnot deqeue_2)))
(let (?e270 (bvand enqeue_2 deqeue_2))
(let (?e271 (bvand (bvnot ?e269) (bvnot ?e270)))
(let (?e272 (bvadd ?e2 tail_fs_2))
(let (?e273 (ite (= bv1[1] full_fs_2) tail_fs_2 ?e272))
(let (?e274 (bvadd ?e16 tail_fs_2))
(let (?e275 (ite (= bv1[1] empty_fs_2) tail_fs_2 ?e274))
(let (?e276 (ite (= bv1[1] enqeue_2) ?e273 ?e275))
(let (?e277 (ite (= bv1[1] ?e271) ?e276 tail_fs_2))
(let (?e278 (ite (= bv1[1] reset_2) ?e277 ?e1))
(let (?e279 (ite (= ?e155 tail_fs_2) bv1[1] bv0[1]))
(let (?e280 (ite (= ?e15 tail_fs_2) bv1[1] bv0[1]))
(let (?e281 (ite (= bv1[1] ?e280) ?e18 full_fs_2))
(let (?e282 (ite (= bv1[1] deqeue_2) ?e17 ?e281))
(let (?e283 (ite (= bv1[1] ?e271) ?e282 full_fs_2))
(let (?e284 (ite (= bv1[1] reset_2) ?e283 ?e17))
(let (?e285 (ite (= ?e161 full_fs_2) bv1[1] bv0[1]))
(let (?e286 (ite (= ?e2 tail_fs_2) bv1[1] bv0[1]))
(let (?e287 (ite (= bv1[1] ?e286) ?e18 empty_fs_2))
(let (?e288 (ite (= bv1[1] enqeue_2) ?e17 ?e287))
(let (?e289 (ite (= bv1[1] ?e271) ?e288 empty_fs_2))
(let (?e290 (ite (= bv1[1] reset_2) ?e289 ?e18))
(let (?e291 (ite (= ?e167 empty_fs_2) bv1[1] bv0[1]))
(let (?e292 (bvand (bvnot empty_fs_2) deqeue_2))
(let (?e293 (select a264 head_fs_2))
(let (?e294 (ite (= bv1[1] ?e292) ?e293 data_out_fs_2))
(let (?e295 (ite (= bv1[1] ?e271) ?e294 data_out_fs_2))
(let (?e296 (ite (= bv1[1] reset_2) ?e295 data_out_fs_2))
(let (?e297 (ite (= ?e173 data_out_fs_2) bv1[1] bv0[1]))
(let (?e299 (store a264 tail_fs_2 data_in_2))
(let (?e300 (ite (= bv1[1] full_fs_2) a264 ?e299))
(let (?e301 (select a264 ?e2))
(let (?e302 (store a264 ?e1 ?e301))
(let (?e303 (select a264 ?e3))
(let (?e304 (store ?e302 ?e2 ?e303))
(let (?e305 (select a264 ?e4))
(let (?e306 (store ?e304 ?e3 ?e305))
(let (?e307 (select a264 ?e5))
(let (?e308 (store ?e306 ?e4 ?e307))
(let (?e309 (select a264 ?e6))
(let (?e310 (store ?e308 ?e5 ?e309))
(let (?e311 (select a264 ?e7))
(let (?e312 (store ?e310 ?e6 ?e311))
(let (?e313 (select a264 ?e8))
(let (?e314 (store ?e312 ?e7 ?e313))
(let (?e315 (select a264 ?e9))
(let (?e316 (store ?e314 ?e8 ?e315))
(let (?e317 (select a264 ?e10))
(let (?e318 (store ?e316 ?e9 ?e317))
(let (?e319 (select a264 ?e11))
(let (?e320 (store ?e318 ?e10 ?e319))
(let (?e321 (select a264 ?e12))
(let (?e322 (store ?e320 ?e11 ?e321))
(let (?e323 (select a264 ?e13))
(let (?e324 (store ?e322 ?e12 ?e323))
(let (?e325 (select a264 ?e14))
(let (?e326 (store ?e324 ?e13 ?e325))
(let (?e327 (select a264 ?e15))
(let (?e328 (store ?e326 ?e14 ?e327))
(let (?e329 (ite (= bv1[1] enqeue_2) ?e300 ?e328))
(let (?e330 (ite (= bv1[1] ?e271) ?e329 a264))
(let (?e331 (ite (= bv1[1] reset_2) ?e330 a264))
(let (?e332 (ite (= ?e208 a264) bv1[1] bv0[1]))
(let (?e333 (bvadd ?e2 head_fq_2))
(let (?e334 (ite (= bv1[1] empty_fq_2) head_fq_2 ?e333))
(let (?e335 (ite (= bv1[1] deqeue_2) ?e334 head_fq_2))
(let (?e336 (ite (= bv1[1] ?e271) ?e335 head_fq_2))
(let (?e337 (ite (= bv1[1] reset_2) ?e336 ?e1))
(let (?e338 (ite (= ?e214 head_fq_2) bv1[1] bv0[1]))
(let (?e339 (bvadd ?e2 tail_fq_2))
(let (?e340 (ite (= bv1[1] full_fq_2) tail_fq_2 ?e339))
(let (?e341 (ite (= bv1[1] enqeue_2) ?e340 tail_fq_2))
(let (?e342 (ite (= bv1[1] ?e271) ?e341 tail_fq_2))
(let (?e343 (ite (= bv1[1] reset_2) ?e342 ?e1))
(let (?e344 (ite (= ?e220 tail_fq_2) bv1[1] bv0[1]))
(let (?e345 (bvadd ?e2 ?e339))
(let (?e346 (ite (= head_fq_2 ?e345) bv1[1] bv0[1]))
(let (?e347 (ite (= bv1[1] ?e346) ?e18 full_fq_2))
(let (?e348 (ite (= bv1[1] deqeue_2) ?e17 ?e347))
(let (?e349 (ite (= bv1[1] ?e271) ?e348 full_fq_2))
(let (?e350 (ite (= bv1[1] reset_2) ?e349 ?e17))
(let (?e351 (ite (= ?e227 full_fq_2) bv1[1] bv0[1]))
(let (?e352 (ite (= tail_fq_2 ?e333) bv1[1] bv0[1]))
(let (?e353 (ite (= bv1[1] ?e352) ?e18 empty_fq_2))
(let (?e354 (ite (= bv1[1] enqeue_2) ?e17 ?e353))
(let (?e355 (ite (= bv1[1] ?e271) ?e354 empty_fq_2))
(let (?e356 (ite (= bv1[1] reset_2) ?e355 ?e18))
(let (?e357 (ite (= ?e233 empty_fq_2) bv1[1] bv0[1]))
(let (?e358 (bvand (bvnot empty_fq_2) deqeue_2))
(let (?e359 (select a265 head_fq_2))
(let (?e360 (ite (= bv1[1] ?e358) ?e359 data_out_fq_2))
(let (?e361 (ite (= bv1[1] ?e271) ?e360 data_out_fq_2))
(let (?e362 (ite (= bv1[1] reset_2) ?e361 data_out_fq_2))
(let (?e363 (ite (= ?e239 data_out_fq_2) bv1[1] bv0[1]))
(let (?e364 (store a265 tail_fq_2 data_in_2))
(let (?e365 (ite (= bv1[1] full_fq_2) a265 ?e364))
(let (?e366 (ite (= bv1[1] enqeue_2) ?e365 a265))
(let (?e367 (ite (= bv1[1] ?e271) ?e366 a265))
(let (?e368 (ite (= bv1[1] reset_2) ?e367 a265))
(let (?e369 (ite (= ?e245 a265) bv1[1] bv0[1]))
(let (?e370 (ite (= data_out_fs_2 data_out_fq_2) bv1[1] bv0[1]))
(let (?e371 (ite (= full_fs_2 full_fq_2) bv1[1] bv0[1]))
(let (?e372 (ite (= empty_fs_2 empty_fq_2) bv1[1] bv0[1]))
(let (?e373 (bvand ?e371 ?e372))
(let (?e374 (bvand ?e370 ?e373))
(let (?e375 (bvand reset_2 (bvnot ?e374)))
(let (?e389 (ite (= ?e1 head_fs_3) bv1[1] bv0[1]))
(let (?e392 (bvand (bvnot enqeue_3) (bvnot deqeue_3)))
(let (?e393 (bvand enqeue_3 deqeue_3))
(let (?e394 (bvand (bvnot ?e392) (bvnot ?e393)))
(let (?e395 (bvadd ?e2 tail_fs_3))
(let (?e396 (ite (= bv1[1] full_fs_3) tail_fs_3 ?e395))
(let (?e397 (bvadd ?e16 tail_fs_3))
(let (?e398 (ite (= bv1[1] empty_fs_3) tail_fs_3 ?e397))
(let (?e399 (ite (= bv1[1] enqeue_3) ?e396 ?e398))
(let (?e400 (ite (= bv1[1] ?e394) ?e399 tail_fs_3))
(let (?e401 (ite (= bv1[1] reset_3) ?e400 ?e1))
(let (?e402 (ite (= ?e278 tail_fs_3) bv1[1] bv0[1]))
(let (?e403 (ite (= ?e15 tail_fs_3) bv1[1] bv0[1]))
(let (?e404 (ite (= bv1[1] ?e403) ?e18 full_fs_3))
(let (?e405 (ite (= bv1[1] deqeue_3) ?e17 ?e404))
(let (?e406 (ite (= bv1[1] ?e394) ?e405 full_fs_3))
(let (?e407 (ite (= bv1[1] reset_3) ?e406 ?e17))
(let (?e408 (ite (= ?e284 full_fs_3) bv1[1] bv0[1]))
(let (?e409 (ite (= ?e2 tail_fs_3) bv1[1] bv0[1]))
(let (?e410 (ite (= bv1[1] ?e409) ?e18 empty_fs_3))
(let (?e411 (ite (= bv1[1] enqeue_3) ?e17 ?e410))
(let (?e412 (ite (= bv1[1] ?e394) ?e411 empty_fs_3))
(let (?e413 (ite (= bv1[1] reset_3) ?e412 ?e18))
(let (?e414 (ite (= ?e290 empty_fs_3) bv1[1] bv0[1]))
(let (?e415 (bvand (bvnot empty_fs_3) deqeue_3))
(let (?e416 (select a387 head_fs_3))
(let (?e417 (ite (= bv1[1] ?e415) ?e416 data_out_fs_3))
(let (?e418 (ite (= bv1[1] ?e394) ?e417 data_out_fs_3))
(let (?e419 (ite (= bv1[1] reset_3) ?e418 data_out_fs_3))
(let (?e420 (ite (= ?e296 data_out_fs_3) bv1[1] bv0[1]))
(let (?e422 (store a387 tail_fs_3 data_in_3))
(let (?e423 (ite (= bv1[1] full_fs_3) a387 ?e422))
(let (?e424 (select a387 ?e2))
(let (?e425 (store a387 ?e1 ?e424))
(let (?e426 (select a387 ?e3))
(let (?e427 (store ?e425 ?e2 ?e426))
(let (?e428 (select a387 ?e4))
(let (?e429 (store ?e427 ?e3 ?e428))
(let (?e430 (select a387 ?e5))
(let (?e431 (store ?e429 ?e4 ?e430))
(let (?e432 (select a387 ?e6))
(let (?e433 (store ?e431 ?e5 ?e432))
(let (?e434 (select a387 ?e7))
(let (?e435 (store ?e433 ?e6 ?e434))
(let (?e436 (select a387 ?e8))
(let (?e437 (store ?e435 ?e7 ?e436))
(let (?e438 (select a387 ?e9))
(let (?e439 (store ?e437 ?e8 ?e438))
(let (?e440 (select a387 ?e10))
(let (?e441 (store ?e439 ?e9 ?e440))
(let (?e442 (select a387 ?e11))
(let (?e443 (store ?e441 ?e10 ?e442))
(let (?e444 (select a387 ?e12))
(let (?e445 (store ?e443 ?e11 ?e444))
(let (?e446 (select a387 ?e13))
(let (?e447 (store ?e445 ?e12 ?e446))
(let (?e448 (select a387 ?e14))
(let (?e449 (store ?e447 ?e13 ?e448))
(let (?e450 (select a387 ?e15))
(let (?e451 (store ?e449 ?e14 ?e450))
(let (?e452 (ite (= bv1[1] enqeue_3) ?e423 ?e451))
(let (?e453 (ite (= bv1[1] ?e394) ?e452 a387))
(let (?e454 (ite (= bv1[1] reset_3) ?e453 a387))
(let (?e455 (ite (= ?e331 a387) bv1[1] bv0[1]))
(let (?e456 (bvadd ?e2 head_fq_3))
(let (?e457 (ite (= bv1[1] empty_fq_3) head_fq_3 ?e456))
(let (?e458 (ite (= bv1[1] deqeue_3) ?e457 head_fq_3))
(let (?e459 (ite (= bv1[1] ?e394) ?e458 head_fq_3))
(let (?e460 (ite (= bv1[1] reset_3) ?e459 ?e1))
(let (?e461 (ite (= ?e337 head_fq_3) bv1[1] bv0[1]))
(let (?e462 (bvadd ?e2 tail_fq_3))
(let (?e463 (ite (= bv1[1] full_fq_3) tail_fq_3 ?e462))
(let (?e464 (ite (= bv1[1] enqeue_3) ?e463 tail_fq_3))
(let (?e465 (ite (= bv1[1] ?e394) ?e464 tail_fq_3))
(let (?e466 (ite (= bv1[1] reset_3) ?e465 ?e1))
(let (?e467 (ite (= ?e343 tail_fq_3) bv1[1] bv0[1]))
(let (?e468 (bvadd ?e2 ?e462))
(let (?e469 (ite (= head_fq_3 ?e468) bv1[1] bv0[1]))
(let (?e470 (ite (= bv1[1] ?e469) ?e18 full_fq_3))
(let (?e471 (ite (= bv1[1] deqeue_3) ?e17 ?e470))
(let (?e472 (ite (= bv1[1] ?e394) ?e471 full_fq_3))
(let (?e473 (ite (= bv1[1] reset_3) ?e472 ?e17))
(let (?e474 (ite (= ?e350 full_fq_3) bv1[1] bv0[1]))
(let (?e475 (ite (= tail_fq_3 ?e456) bv1[1] bv0[1]))
(let (?e476 (ite (= bv1[1] ?e475) ?e18 empty_fq_3))
(let (?e477 (ite (= bv1[1] enqeue_3) ?e17 ?e476))
(let (?e478 (ite (= bv1[1] ?e394) ?e477 empty_fq_3))
(let (?e479 (ite (= bv1[1] reset_3) ?e478 ?e18))
(let (?e480 (ite (= ?e356 empty_fq_3) bv1[1] bv0[1]))
(let (?e481 (bvand (bvnot empty_fq_3) deqeue_3))
(let (?e482 (select a388 head_fq_3))
(let (?e483 (ite (= bv1[1] ?e481) ?e482 data_out_fq_3))
(let (?e484 (ite (= bv1[1] ?e394) ?e483 data_out_fq_3))
(let (?e485 (ite (= bv1[1] reset_3) ?e484 data_out_fq_3))
(let (?e486 (ite (= ?e362 data_out_fq_3) bv1[1] bv0[1]))
(let (?e487 (store a388 tail_fq_3 data_in_3))
(let (?e488 (ite (= bv1[1] full_fq_3) a388 ?e487))
(let (?e489 (ite (= bv1[1] enqeue_3) ?e488 a388))
(let (?e490 (ite (= bv1[1] ?e394) ?e489 a388))
(let (?e491 (ite (= bv1[1] reset_3) ?e490 a388))
(let (?e492 (ite (= ?e368 a388) bv1[1] bv0[1]))
(let (?e493 (ite (= data_out_fs_3 data_out_fq_3) bv1[1] bv0[1]))
(let (?e494 (ite (= full_fs_3 full_fq_3) bv1[1] bv0[1]))
(let (?e495 (ite (= empty_fs_3 empty_fq_3) bv1[1] bv0[1]))
(let (?e496 (bvand ?e494 ?e495))
(let (?e497 (bvand ?e493 ?e496))
(let (?e498 (bvand reset_3 (bvnot ?e497)))
(let (?e512 (ite (= ?e1 head_fs_4) bv1[1] bv0[1]))
(let (?e515 (bvand (bvnot enqeue_4) (bvnot deqeue_4)))
(let (?e516 (bvand enqeue_4 deqeue_4))
(let (?e517 (bvand (bvnot ?e515) (bvnot ?e516)))
(let (?e518 (bvadd ?e2 tail_fs_4))
(let (?e519 (ite (= bv1[1] full_fs_4) tail_fs_4 ?e518))
(let (?e520 (bvadd ?e16 tail_fs_4))
(let (?e521 (ite (= bv1[1] empty_fs_4) tail_fs_4 ?e520))
(let (?e522 (ite (= bv1[1] enqeue_4) ?e519 ?e521))
(let (?e523 (ite (= bv1[1] ?e517) ?e522 tail_fs_4))
(let (?e524 (ite (= bv1[1] reset_4) ?e523 ?e1))
(let (?e525 (ite (= ?e401 tail_fs_4) bv1[1] bv0[1]))
(let (?e526 (ite (= ?e15 tail_fs_4) bv1[1] bv0[1]))
(let (?e527 (ite (= bv1[1] ?e526) ?e18 full_fs_4))
(let (?e528 (ite (= bv1[1] deqeue_4) ?e17 ?e527))
(let (?e529 (ite (= bv1[1] ?e517) ?e528 full_fs_4))
(let (?e530 (ite (= bv1[1] reset_4) ?e529 ?e17))
(let (?e531 (ite (= ?e407 full_fs_4) bv1[1] bv0[1]))
(let (?e532 (ite (= ?e2 tail_fs_4) bv1[1] bv0[1]))
(let (?e533 (ite (= bv1[1] ?e532) ?e18 empty_fs_4))
(let (?e534 (ite (= bv1[1] enqeue_4) ?e17 ?e533))
(let (?e535 (ite (= bv1[1] ?e517) ?e534 empty_fs_4))
(let (?e536 (ite (= bv1[1] reset_4) ?e535 ?e18))
(let (?e537 (ite (= ?e413 empty_fs_4) bv1[1] bv0[1]))
(let (?e538 (bvand (bvnot empty_fs_4) deqeue_4))
(let (?e539 (select a510 head_fs_4))
(let (?e540 (ite (= bv1[1] ?e538) ?e539 data_out_fs_4))
(let (?e541 (ite (= bv1[1] ?e517) ?e540 data_out_fs_4))
(let (?e542 (ite (= bv1[1] reset_4) ?e541 data_out_fs_4))
(let (?e543 (ite (= ?e419 data_out_fs_4) bv1[1] bv0[1]))
(let (?e545 (store a510 tail_fs_4 data_in_4))
(let (?e546 (ite (= bv1[1] full_fs_4) a510 ?e545))
(let (?e547 (select a510 ?e2))
(let (?e548 (store a510 ?e1 ?e547))
(let (?e549 (select a510 ?e3))
(let (?e550 (store ?e548 ?e2 ?e549))
(let (?e551 (select a510 ?e4))
(let (?e552 (store ?e550 ?e3 ?e551))
(let (?e553 (select a510 ?e5))
(let (?e554 (store ?e552 ?e4 ?e553))
(let (?e555 (select a510 ?e6))
(let (?e556 (store ?e554 ?e5 ?e555))
(let (?e557 (select a510 ?e7))
(let (?e558 (store ?e556 ?e6 ?e557))
(let (?e559 (select a510 ?e8))
(let (?e560 (store ?e558 ?e7 ?e559))
(let (?e561 (select a510 ?e9))
(let (?e562 (store ?e560 ?e8 ?e561))
(let (?e563 (select a510 ?e10))
(let (?e564 (store ?e562 ?e9 ?e563))
(let (?e565 (select a510 ?e11))
(let (?e566 (store ?e564 ?e10 ?e565))
(let (?e567 (select a510 ?e12))
(let (?e568 (store ?e566 ?e11 ?e567))
(let (?e569 (select a510 ?e13))
(let (?e570 (store ?e568 ?e12 ?e569))
(let (?e571 (select a510 ?e14))
(let (?e572 (store ?e570 ?e13 ?e571))
(let (?e573 (select a510 ?e15))
(let (?e574 (store ?e572 ?e14 ?e573))
(let (?e575 (ite (= bv1[1] enqeue_4) ?e546 ?e574))
(let (?e576 (ite (= bv1[1] ?e517) ?e575 a510))
(let (?e577 (ite (= bv1[1] reset_4) ?e576 a510))
(let (?e578 (ite (= ?e454 a510) bv1[1] bv0[1]))
(let (?e579 (bvadd ?e2 head_fq_4))
(let (?e580 (ite (= bv1[1] empty_fq_4) head_fq_4 ?e579))
(let (?e581 (ite (= bv1[1] deqeue_4) ?e580 head_fq_4))
(let (?e582 (ite (= bv1[1] ?e517) ?e581 head_fq_4))
(let (?e583 (ite (= bv1[1] reset_4) ?e582 ?e1))
(let (?e584 (ite (= ?e460 head_fq_4) bv1[1] bv0[1]))
(let (?e585 (bvadd ?e2 tail_fq_4))
(let (?e586 (ite (= bv1[1] full_fq_4) tail_fq_4 ?e585))
(let (?e587 (ite (= bv1[1] enqeue_4) ?e586 tail_fq_4))
(let (?e588 (ite (= bv1[1] ?e517) ?e587 tail_fq_4))
(let (?e589 (ite (= bv1[1] reset_4) ?e588 ?e1))
(let (?e590 (ite (= ?e466 tail_fq_4) bv1[1] bv0[1]))
(let (?e591 (bvadd ?e2 ?e585))
(let (?e592 (ite (= head_fq_4 ?e591) bv1[1] bv0[1]))
(let (?e593 (ite (= bv1[1] ?e592) ?e18 full_fq_4))
(let (?e594 (ite (= bv1[1] deqeue_4) ?e17 ?e593))
(let (?e595 (ite (= bv1[1] ?e517) ?e594 full_fq_4))
(let (?e596 (ite (= bv1[1] reset_4) ?e595 ?e17))
(let (?e597 (ite (= ?e473 full_fq_4) bv1[1] bv0[1]))
(let (?e598 (ite (= tail_fq_4 ?e579) bv1[1] bv0[1]))
(let (?e599 (ite (= bv1[1] ?e598) ?e18 empty_fq_4))
(let (?e600 (ite (= bv1[1] enqeue_4) ?e17 ?e599))
(let (?e601 (ite (= bv1[1] ?e517) ?e600 empty_fq_4))
(let (?e602 (ite (= bv1[1] reset_4) ?e601 ?e18))
(let (?e603 (ite (= ?e479 empty_fq_4) bv1[1] bv0[1]))
(let (?e604 (bvand (bvnot empty_fq_4) deqeue_4))
(let (?e605 (select a511 head_fq_4))
(let (?e606 (ite (= bv1[1] ?e604) ?e605 data_out_fq_4))
(let (?e607 (ite (= bv1[1] ?e517) ?e606 data_out_fq_4))
(let (?e608 (ite (= bv1[1] reset_4) ?e607 data_out_fq_4))
(let (?e609 (ite (= ?e485 data_out_fq_4) bv1[1] bv0[1]))
(let (?e610 (store a511 tail_fq_4 data_in_4))
(let (?e611 (ite (= bv1[1] full_fq_4) a511 ?e610))
(let (?e612 (ite (= bv1[1] enqeue_4) ?e611 a511))
(let (?e613 (ite (= bv1[1] ?e517) ?e612 a511))
(let (?e614 (ite (= bv1[1] reset_4) ?e613 a511))
(let (?e615 (ite (= ?e491 a511) bv1[1] bv0[1]))
(let (?e616 (ite (= data_out_fs_4 data_out_fq_4) bv1[1] bv0[1]))
(let (?e617 (ite (= full_fs_4 full_fq_4) bv1[1] bv0[1]))
(let (?e618 (ite (= empty_fs_4 empty_fq_4) bv1[1] bv0[1]))
(let (?e619 (bvand ?e617 ?e618))
(let (?e620 (bvand ?e616 ?e619))
(let (?e621 (bvand reset_4 (bvnot ?e620)))
(let (?e635 (ite (= ?e1 head_fs_5) bv1[1] bv0[1]))
(let (?e636 (ite (= ?e524 tail_fs_5) bv1[1] bv0[1]))
(let (?e637 (ite (= ?e530 full_fs_5) bv1[1] bv0[1]))
(let (?e638 (ite (= ?e536 empty_fs_5) bv1[1] bv0[1]))
(let (?e639 (ite (= ?e542 data_out_fs_5) bv1[1] bv0[1]))
(let (?e640 (ite (= ?e577 a633) bv1[1] bv0[1]))
(let (?e641 (ite (= ?e583 head_fq_5) bv1[1] bv0[1]))
(let (?e642 (ite (= ?e589 tail_fq_5) bv1[1] bv0[1]))
(let (?e643 (ite (= ?e596 full_fq_5) bv1[1] bv0[1]))
(let (?e644 (ite (= ?e602 empty_fq_5) bv1[1] bv0[1]))
(let (?e645 (ite (= ?e608 data_out_fq_5) bv1[1] bv0[1]))
(let (?e646 (ite (= ?e614 a634) bv1[1] bv0[1]))
(let (?e647 (ite (= data_out_fs_5 data_out_fq_5) bv1[1] bv0[1]))
(let (?e648 (ite (= full_fs_5 full_fq_5) bv1[1] bv0[1]))
(let (?e649 (ite (= empty_fs_5 empty_fq_5) bv1[1] bv0[1]))
(let (?e650 (bvand ?e648 ?e649))
(let (?e651 (bvand ?e647 ?e650))
(let (?e652 (bvand (bvnot ?e129) ?e143))
(let (?e653 (bvand ?e156 ?e652))
(let (?e654 (bvand ?e162 ?e653))
(let (?e655 (bvand ?e168 ?e654))
(let (?e656 (bvand ?e174 ?e655))
(let (?e657 (bvand ?e209 ?e656))
(let (?e658 (bvand ?e215 ?e657))
(let (?e659 (bvand ?e221 ?e658))
(let (?e660 (bvand ?e228 ?e659))
(let (?e661 (bvand ?e234 ?e660))
(let (?e662 (bvand ?e240 ?e661))
(let (?e663 (bvand ?e246 ?e662))
(let (?e664 (bvand reset_1 ?e663))
(let (?e665 (bvand (bvnot ?e252) ?e664))
(let (?e666 (bvand ?e266 ?e665))
(let (?e667 (bvand ?e279 ?e666))
(let (?e668 (bvand ?e285 ?e667))
(let (?e669 (bvand ?e291 ?e668))
(let (?e670 (bvand ?e297 ?e669))
(let (?e671 (bvand ?e332 ?e670))
(let (?e672 (bvand ?e338 ?e671))
(let (?e673 (bvand ?e344 ?e672))
(let (?e674 (bvand ?e351 ?e673))
(let (?e675 (bvand ?e357 ?e674))
(let (?e676 (bvand ?e363 ?e675))
(let (?e677 (bvand ?e369 ?e676))
(let (?e678 (bvand reset_2 ?e677))
(let (?e679 (bvand (bvnot ?e375) ?e678))
(let (?e680 (bvand ?e389 ?e679))
(let (?e681 (bvand ?e402 ?e680))
(let (?e682 (bvand ?e408 ?e681))
(let (?e683 (bvand ?e414 ?e682))
(let (?e684 (bvand ?e420 ?e683))
(let (?e685 (bvand ?e455 ?e684))
(let (?e686 (bvand ?e461 ?e685))
(let (?e687 (bvand ?e467 ?e686))
(let (?e688 (bvand ?e474 ?e687))
(let (?e689 (bvand ?e480 ?e688))
(let (?e690 (bvand ?e486 ?e689))
(let (?e691 (bvand ?e492 ?e690))
(let (?e692 (bvand reset_3 ?e691))
(let (?e693 (bvand (bvnot ?e498) ?e692))
(let (?e694 (bvand ?e512 ?e693))
(let (?e695 (bvand ?e525 ?e694))
(let (?e696 (bvand ?e531 ?e695))
(let (?e697 (bvand ?e537 ?e696))
(let (?e698 (bvand ?e543 ?e697))
(let (?e699 (bvand ?e578 ?e698))
(let (?e700 (bvand ?e584 ?e699))
(let (?e701 (bvand ?e590 ?e700))
(let (?e702 (bvand ?e597 ?e701))
(let (?e703 (bvand ?e603 ?e702))
(let (?e704 (bvand ?e609 ?e703))
(let (?e705 (bvand ?e615 ?e704))
(let (?e706 (bvand reset_4 ?e705))
(let (?e707 (bvand (bvnot ?e621) ?e706))
(let (?e708 (bvand ?e635 ?e707))
(let (?e709 (bvand ?e636 ?e708))
(let (?e710 (bvand ?e637 ?e709))
(let (?e711 (bvand ?e638 ?e710))
(let (?e712 (bvand ?e639 ?e711))
(let (?e713 (bvand ?e640 ?e712))
(let (?e714 (bvand ?e641 ?e713))
(let (?e715 (bvand ?e642 ?e714))
(let (?e716 (bvand ?e643 ?e715))
(let (?e717 (bvand ?e644 ?e716))
(let (?e718 (bvand ?e645 ?e717))
(let (?e719 (bvand ?e646 ?e718))
(let (?e720 (bvand reset_5 ?e719))
(let (?e721 (bvand (bvnot ?e651) ?e720))
(let (?e722 (bvand reset_5 ?e721))
(not (= ?e722 bv0[1]))
))))))))))))))))))))))))))))))))))))))))))))))))))))))))))))))))))))))))))))))))))))))))))))))))))))))))))))))))))))))))))))))))))))))))))))))))))))))))))))))))))))))))))))))))))))))))))))))))))))))))))))))))))))))))))))))))))))))))))))))))))))))))))))))))))))))))))))))))))))))))))))))))))))))))))))))))))))))))))))))))))))))))))))))))))))))))))))))))))))))))))))))))))))))))))))))))))))))))))))))))))))))))))))))))))))))))))))))))))))))))))))))))))))))))))))))))))))))))))))))))))))))))))))))))))))))))))))))))))))))))))))))))))))))))))))))))))))))))))))))))))))))))))))))))))))))))))))))))))))))))))))))))))))))))))))))))))))))
